37429 40202 
38276 39776 
37627 40045 
38596 39642 
38122 39844 
38869 39469 
40026 38731 
39638 38922 
36052 40485 
37817 40011 
38310 39756 
38435 39687 
36809 40257 
38531 39683 
38820 39504 
38057 39885 
36190 40438 
36279 40376 
36871 40231 
35830 40507 
35750 40554 
38137 39838 
36744 40298 
39218 39247 
37069 40225 
36655 40360 
36824 40251 
39828 38790 
